NAME : in_house_8_1
TYPE : TSP
DIMENSION : 8
EDGE_WEIGHT_TYPE : EXPLICIT
EDGE_WEIGHT_FORMAT : UPPER_ROW
COMMENT : INVERSION_SHIFT=3
EDGE_WEIGHT_SECTION
9
20
63
34
22
54
48
63
26
21
42
13
27
2
41
21
21
60
7
25
8
4
10
12
29
59
31
30
